c Sudoku solution
p cnf 729 0
199 0
247 0
264 0
276 0
319 0
259 0
334 0
361 0
375 0
392 0
433 0
478 0
518 0
536 0
582 0
641 0
656 0
668 0
679 0
755 0
848 0
869 0
923 0
957 0
851 0
966 0
971 0
989 0
739 0
998 0
728 0
711 0
484 0
496 0
591 0
421 0
529 0
452 0
449 0
554 0
174 0
293 0
113 0
158 0
353 0
346 0
126 0
327 0
187 0
281 0
388 0
131 0
238 0
816 0
837 0
786 0
683 0
577 0
695 0
467 0
415 0
632 0
624 0
617 0
914 0
894 0
885 0
744 0
763 0
942 0
772 0
873 0
797 0
822 0
935 0
212 0
225 0
145 0
162 0
543 0
565 0
